Grasp exp. instance_n_25_m_5_id_2.lp tipoLifted 0 szPool 5 nIteration 20 alpha 0.6 
Academic license - for non-commercial use only
Read LP format model from file ../input/instancesGenerated/instance_n_25_m_5_id_2.lp
Reading time = 0.00 seconds
: 5 rows, 25 columns, 125 nonzeros
Optimize a model with 5 rows, 25 columns and 125 nonzeros
Variable types: 0 continuous, 25 integer (25 binary)
Coefficient statistics:
  Matrix range     [1e+00, 1e+01]
  Objective range  [1e+00, 1e+01]
  Bounds range     [1e+00, 1e+00]
  RHS range        [7e+01, 8e+01]
Found heuristic solution: objective 63.0000000

Explored 0 nodes (0 simplex iterations) in 0.00 seconds
Thread count was 1 (of 8 available processors)

Solution count 1: 63 
No other solutions better than 0

Solution limit reached
Best objective 6.300000000000e+01, best bound -, gap -
C_1:	 5.00 x_1  = 0.783784 + 10.00 x_2  = 1.000000 + 2.00 x_3  = 0.000000 + 1.00 x_4  = 1.000000 + 6.00 x_5  = 1.000000 + 10.00 x_6  = 0.054054 + 6.00 x_7  = 0.000000 + 6.00 x_8  = 0.256757 + 1.00 x_9  = 0.000000 + 1.00 x_10  = 1.000000 + 5.00 x_11  = 1.000000 + 7.00 x_12  = 0.000000 + 7.00 x_13  = 0.000000 + 9.00 x_14  = 1.000000 + 10.00 x_15  = 1.000000 + 5.00 x_16  = 1.000000 + 5.00 x_17  = 1.000000 + 1.00 x_18  = 0.000000 + 8.00 x_19  = 0.000000 + 6.00 x_20  = 0.000000 + 2.00 x_21  = 0.000000 + 7.00 x_22  = 0.000000 + 7.00 x_23  = 0.000000 + 2.00 x_24  = 1.000000 + 9.00 x_25  = 1.000000 <= 69.00
C_2:	 8.00 x_1  = 0.783784 + 6.00 x_2  = 1.000000 + 6.00 x_3  = 0.000000 + 1.00 x_4  = 1.000000 + 1.00 x_5  = 1.000000 + 4.00 x_6  = 0.054054 + 7.00 x_7  = 0.000000 + 2.00 x_8  = 0.256757 + 7.00 x_9  = 0.000000 + 8.00 x_10  = 1.000000 + 9.00 x_11  = 1.000000 + 6.00 x_12  = 0.000000 + 5.00 x_13  = 0.000000 + 5.00 x_14  = 1.000000 + 9.00 x_15  = 1.000000 + 8.00 x_16  = 1.000000 + 9.00 x_17  = 1.000000 + 5.00 x_18  = 0.000000 + 4.00 x_19  = 0.000000 + 10.00 x_20  = 0.000000 + 5.00 x_21  = 0.000000 + 8.00 x_22  = 0.000000 + 6.00 x_23  = 0.000000 + 7.00 x_24  = 1.000000 + 5.00 x_25  = 1.000000 <= 75.00
C_3:	 1.00 x_1  = 0.783784 + 10.00 x_2  = 1.000000 + 3.00 x_3  = 0.000000 + 8.00 x_4  = 1.000000 + 4.00 x_5  = 1.000000 + 1.00 x_6  = 0.054054 + 7.00 x_7  = 0.000000 + 9.00 x_8  = 0.256757 + 9.00 x_9  = 0.000000 + 7.00 x_10  = 1.000000 + 1.00 x_11  = 1.000000 + 2.00 x_12  = 0.000000 + 5.00 x_13  = 0.000000 + 2.00 x_14  = 1.000000 + 10.00 x_15  = 1.000000 + 4.00 x_16  = 1.000000 + 1.00 x_17  = 1.000000 + 8.00 x_18  = 0.000000 + 9.00 x_19  = 0.000000 + 7.00 x_20  = 0.000000 + 6.00 x_21  = 0.000000 + 6.00 x_22  = 0.000000 + 7.00 x_23  = 0.000000 + 10.00 x_24  = 1.000000 + 1.00 x_25  = 1.000000 <= 69.00
C_4:	 6.00 x_1  = 0.783784 + 6.00 x_2  = 1.000000 + 8.00 x_3  = 0.000000 + 2.00 x_4  = 1.000000 + 5.00 x_5  = 1.000000 + 5.00 x_6  = 0.054054 + 4.00 x_7  = 0.000000 + 4.00 x_8  = 0.256757 + 7.00 x_9  = 0.000000 + 1.00 x_10  = 1.000000 + 7.00 x_11  = 1.000000 + 10.00 x_12  = 0.000000 + 9.00 x_13  = 0.000000 + 7.00 x_14  = 1.000000 + 8.00 x_15  = 1.000000 + 7.00 x_16  = 1.000000 + 7.00 x_17  = 1.000000 + 1.00 x_18  = 0.000000 + 2.00 x_19  = 0.000000 + 1.00 x_20  = 0.000000 + 10.00 x_21  = 0.000000 + 5.00 x_22  = 0.000000 + 3.00 x_23  = 0.000000 + 7.00 x_24  = 1.000000 + 5.00 x_25  = 1.000000 <= 68.00
C_5:	 9.00 x_1  = 0.783784 + 4.00 x_2  = 1.000000 + 10.00 x_3  = 0.000000 + 7.00 x_4  = 1.000000 + 6.00 x_5  = 1.000000 + 10.00 x_6  = 0.054054 + 3.00 x_7  = 0.000000 + 1.00 x_8  = 0.256757 + 10.00 x_9  = 0.000000 + 4.00 x_10  = 1.000000 + 7.00 x_11  = 1.000000 + 4.00 x_12  = 0.000000 + 7.00 x_13  = 0.000000 + 3.00 x_14  = 1.000000 + 2.00 x_15  = 1.000000 + 10.00 x_16  = 1.000000 + 1.00 x_17  = 1.000000 + 3.00 x_18  = 0.000000 + 10.00 x_19  = 0.000000 + 10.00 x_20  = 0.000000 + 10.00 x_21  = 0.000000 + 7.00 x_22  = 0.000000 + 6.00 x_23  = 0.000000 + 2.00 x_24  = 1.000000 + 8.00 x_25  = 1.000000 <= 77.00
Solution initial: 94.743243 
Number Constraints Used in Cover:5
GRASP Method!
Number cuts repeat: 0
value: 94.743243
Number Constraints Used in Cover:10
GRASP Method!
Number cuts repeat: 0
value: 94.743243
Number Constraints Used in Cover:13
GRASP Method!
Number cuts repeat: 0
value: 94.743243
Number Constraints Used in Cover:17
GRASP Method!
Number cuts repeat: 0
value: 94.743243
Number Constraints Used in Cover:22
GRASP Method!
Number cuts repeat: 0
value: 94.743243
Number Constraints Used in Cover:25
GRASP Method!
Number cuts repeat: 0
value: 94.743243
Number Constraints Used in Cover:27
GRASP Method!
Number cuts repeat: 0
value: 94.743243
Number Constraints Used in Cover:28
GRASP Method!
Number cuts repeat: 0
value: 94.743243
Number Constraints Used in Cover:31
GRASP Method!
Number cuts repeat: 0
value: 94.743243
Number Constraints Used in Cover:36
GRASP Method!
Number cuts repeat: 0
value: 94.743243
Number Constraints Used in Cover:40
GRASP Method!
Number cuts repeat: 0
value: 94.743243
Number Constraints Used in Cover:43
GRASP Method!
Number cuts repeat: 0
value: 94.743243
Number Constraints Used in Cover:45
GRASP Method!
Number cuts repeat: 0
value: 94.743243
Number Constraints Used in Cover:50
GRASP Method!
Number cuts repeat: 0
value: 94.743243
Number Constraints Used in Cover:55
GRASP Method!
Number cuts repeat: 0
value: 94.743243
Number Constraints Used in Cover:60
GRASP Method!
Number cuts repeat: 0
value: 94.743243
Number Constraints Used in Cover:64
GRASP Method!
Number cuts repeat: 0
value: 94.743243
Number Constraints Used in Cover:69
GRASP Method!
Number cuts repeat: 0
value: 94.743243
Number Constraints Used in Cover:72
GRASP Method!
Number cuts repeat: 0
value: 94.743243
Number Constraints Used in Cover:73
GRASP Method!
Number cuts repeat: 0
value: 94.743243
Number Constraints Used in Cover:75
GRASP Method!
Number cuts repeat: 0
value: 94.743243
Number Constraints Used in Cover:77
GRASP Method!
Number cuts repeat: 0
value: 94.743243
Number Constraints Used in Cover:79
GRASP Method!
Number cuts repeat: 0
value: 94.743243
Number Constraints Used in Cover:83
GRASP Method!
Number cuts repeat: 0
value: 94.743243
Number Constraints Used in Cover:86
GRASP Method!
Number cuts repeat: 0
value: 94.743243
Number Constraints Used in Cover:88
GRASP Method!
Number cuts repeat: 0
value: 94.743243
Number Constraints Used in Cover:92
GRASP Method!
Number cuts repeat: 0
value: 94.743243
Number Constraints Used in Cover:92
GRASP Method!
Number cuts repeat: 0
value: 94.743243
Number Constraints Used in Cover:92
GRASP Method!
Number cuts repeat: 0
value: 94.743243
Number Constraints Used in Cover:94
GRASP Method!
Number cuts repeat: 0
value: 94.743243
Number Constraints Used in Cover:97
GRASP Method!
Number cuts repeat: 0
value: 94.743243
Number Constraints Used in Cover:97
GRASP Method!
Number cuts repeat: 0
value: 94.743243
Number Constraints Used in Cover:100
GRASP Method!
Number cuts repeat: 0
value: 94.743243
Number Constraints Used in Cover:104
GRASP Method!
Number cuts repeat: 0
value: 94.743243
Number Constraints Used in Cover:106
GRASP Method!
Number cuts repeat: 0
value: 94.743243
Number Constraints Used in Cover:109
GRASP Method!
Number cuts repeat: 0
value: 94.743243
Number Constraints Used in Cover:112
GRASP Method!
Number cuts repeat: 0
value: 94.743243
Number Constraints Used in Cover:115
GRASP Method!
Number cuts repeat: 0
value: 94.743243
Number Constraints Used in Cover:115
GRASP Method!
Number cuts repeat: 0
value: 94.743243
Number Constraints Used in Cover:119
GRASP Method!
Number cuts repeat: 0
value: 94.743243
Number Constraints Used in Cover:122
GRASP Method!
Number cuts repeat: 0
value: 94.743243
Number Constraints Used in Cover:127
GRASP Method!
Number cuts repeat: 0
value: 94.743243
Number Constraints Used in Cover:130
GRASP Method!
Number cuts repeat: 0
value: 94.743243
Number Constraints Used in Cover:134
GRASP Method!
Number cuts repeat: 0
value: 94.743243
Number Constraints Used in Cover:138
GRASP Method!
Number cuts repeat: 0
value: 94.743243
Number Constraints Used in Cover:140
GRASP Method!
Number cuts repeat: 0
value: 94.743243
Number Constraints Used in Cover:142
GRASP Method!
Number cuts repeat: 0
value: 94.743243
Number Constraints Used in Cover:145
GRASP Method!
Number cuts repeat: 0
value: 94.743243
Number Constraints Used in Cover:145
GRASP Method!
Number cuts repeat: 0
value: 94.743243
Number Constraints Used in Cover:147
GRASP Method!
Number cuts repeat: 0
value: 94.743243
Number Constraints Used in Cover:150
GRASP Method!
Number cuts repeat: 0
value: 94.743243
Number Constraints Used in Cover:154
GRASP Method!
Number cuts repeat: 0
value: 94.743243
Number Constraints Used in Cover:161
GRASP Method!
Number cuts repeat: 0
value: 94.743243
Number Constraints Used in Cover:164
GRASP Method!
Number cuts repeat: 0
value: 94.743243
Number Constraints Used in Cover:170
GRASP Method!
Number cuts repeat: 0
value: 94.743243
Number Constraints Used in Cover:174
GRASP Method!
Number cuts repeat: 0
value: 94.743243
Number Constraints Used in Cover:176
GRASP Method!
Number cuts repeat: 0
value: 94.743243
Number Constraints Used in Cover:182
GRASP Method!
Number cuts repeat: 0
value: 94.743243
Number Constraints Used in Cover:186
GRASP Method!
Number cuts repeat: 0
value: 94.743243
Number Constraints Used in Cover:192
GRASP Method!
Number cuts repeat: 0
value: 94.743243
Number Constraints Used in Cover:198
GRASP Method!
Number cuts repeat: 0
value: 94.743243
Number Constraints Used in Cover:201
GRASP Method!
Number cuts repeat: 0
value: 94.743243
Number Constraints Used in Cover:208
GRASP Method!
Number cuts repeat: 0
value: 94.743243
Number Constraints Used in Cover:214
GRASP Method!
Number cuts repeat: 0
value: 94.743243
Number Constraints Used in Cover:219
GRASP Method!
Number cuts repeat: 0
value: 94.743243
Number Constraints Used in Cover:223
GRASP Method!
Number cuts repeat: 0
value: 94.743243
Number Constraints Used in Cover:227
GRASP Method!
Number cuts repeat: 0
value: 94.743243
Number Constraints Used in Cover:233
GRASP Method!
Number cuts repeat: 0
value: 94.743243
Number Constraints Used in Cover:242
GRASP Method!
Number cuts repeat: 0
value: 94.743243
Number Constraints Used in Cover:246
GRASP Method!
Number cuts repeat: 0
value: 94.743243
Number Constraints Used in Cover:251
GRASP Method!
Number cuts repeat: 0
value: 94.743243
Number Constraints Used in Cover:257
GRASP Method!
Number cuts repeat: 0
value: 94.743243
Number Constraints Used in Cover:259
GRASP Method!
Number cuts repeat: 0
value: 94.743243
Number Constraints Used in Cover:260
GRASP Method!
Number cuts repeat: 0
value: 94.743243
Number Constraints Used in Cover:266
GRASP Method!
Number cuts repeat: 0
value: 94.743243
Number Constraints Used in Cover:269
GRASP Method!
Number cuts repeat: 0
value: 94.743243
Number Constraints Used in Cover:271
GRASP Method!
Number cuts repeat: 0
value: 94.743243
Number Constraints Used in Cover:277
GRASP Method!
Number cuts repeat: 0
value: 94.743243
Number Constraints Used in Cover:279
GRASP Method!
Number cuts repeat: 0
value: 94.743243
Number Constraints Used in Cover:282
GRASP Method!
Number cuts repeat: 0
value: 94.743243
Number Constraints Used in Cover:287
GRASP Method!
Number cuts repeat: 0
value: 94.743243
Number Constraints Used in Cover:293
GRASP Method!
Number cuts repeat: 0
value: 94.743243
Number Constraints Used in Cover:297
GRASP Method!
Number cuts repeat: 0
value: 94.743243
Number Constraints Used in Cover:299
GRASP Method!
Number cuts repeat: 0
value: 94.743243
Number Constraints Used in Cover:304
GRASP Method!
Number cuts repeat: 0
value: 94.743243
Number Constraints Used in Cover:309
GRASP Method!
Number cuts repeat: 0
value: 94.743243
Number Constraints Used in Cover:315
GRASP Method!
Number cuts repeat: 0
value: 94.743243
Number Constraints Used in Cover:320
GRASP Method!
Number cuts repeat: 0
value: 94.743243
Number Constraints Used in Cover:325
GRASP Method!
Number cuts repeat: 0
value: 94.743243
Number Constraints Used in Cover:330
GRASP Method!
Number cuts repeat: 0
value: 94.743243
Number Constraints Used in Cover:337
GRASP Method!
Number cuts repeat: 0
value: 94.743243
Number Constraints Used in Cover:343
GRASP Method!
Number cuts repeat: 0
value: 94.743243
Number Constraints Used in Cover:346
GRASP Method!
Number cuts repeat: 0
value: 94.743243
Number Constraints Used in Cover:348
GRASP Method!
Number cuts repeat: 0
value: 94.743243
Number Constraints Used in Cover:350
GRASP Method!
Number cuts repeat: 0
value: 94.743243
Number Constraints Used in Cover:354
GRASP Method!
Number cuts repeat: 0
value: 94.743243
Number Constraints Used in Cover:359
GRASP Method!
Number cuts repeat: 0
value: 94.743243
Number Constraints Used in Cover:362
GRASP Method!
Number cuts repeat: 0
value: 94.743243
Number Constraints Used in Cover:364
GRASP Method!
Number cuts repeat: 0
value: 94.743243
Number Constraints Used in Cover:372
GRASP Method!
Number cuts repeat: 0
value: 94.743243
Number Constraints Used in Cover:374
GRASP Method!
Number cuts repeat: 0
value: 94.743243
Number Constraints Used in Cover:379
GRASP Method!
Number cuts repeat: 0
value: 94.743243
Number Constraints Used in Cover:382
GRASP Method!
Number cuts repeat: 0
value: 94.743243
Number Constraints Used in Cover:385
GRASP Method!
Number cuts repeat: 0
value: 94.743243
Number Constraints Used in Cover:388
GRASP Method!
Number cuts repeat: 0
value: 94.743243
Number Constraints Used in Cover:390
GRASP Method!
Number cuts repeat: 0
value: 94.743243
Number Constraints Used in Cover:394
GRASP Method!
Number cuts repeat: 0
value: 94.743243
Number Constraints Used in Cover:397
GRASP Method!
Number cuts repeat: 0
value: 94.743243
Number Constraints Used in Cover:399
GRASP Method!
Number cuts repeat: 0
value: 94.743243
Number Constraints Used in Cover:401
GRASP Method!
Number cuts repeat: 0
value: 94.743243
Number Constraints Used in Cover:406
GRASP Method!
Number cuts repeat: 0
value: 94.743243
Number Constraints Used in Cover:412
GRASP Method!
Number cuts repeat: 0
value: 94.743243
Number Constraints Used in Cover:415
GRASP Method!
Number cuts repeat: 0
value: 94.743243
Number Constraints Used in Cover:418
GRASP Method!
Number cuts repeat: 0
value: 94.743243
Number Constraints Used in Cover:420
GRASP Method!
Number cuts repeat: 0
value: 94.743243
Number Constraints Used in Cover:422
GRASP Method!
Number cuts repeat: 0
value: 94.743243
Number Constraints Used in Cover:427
GRASP Method!
Number cuts repeat: 0
value: 94.743243
Number Constraints Used in Cover:430
GRASP Method!
Number cuts repeat: 0
value: 94.743243
Number Constraints Used in Cover:437
GRASP Method!
Number cuts repeat: 0
value: 94.743243
Number Constraints Used in Cover:442
GRASP Method!
Number cuts repeat: 0
value: 94.743243
Number Constraints Used in Cover:446
GRASP Method!
Number cuts repeat: 0
value: 94.743243
Number Constraints Used in Cover:452
GRASP Method!
Number cuts repeat: 0
value: 94.743243
Number Constraints Used in Cover:458
GRASP Method!
Number cuts repeat: 0
value: 94.743243
Number Constraints Used in Cover:462
GRASP Method!
Number cuts repeat: 0
value: 94.743243
Number Constraints Used in Cover:465
GRASP Method!
Number cuts repeat: 0
value: 94.743243
Number Constraints Used in Cover:471
GRASP Method!
Number cuts repeat: 0
value: 94.743243
Number Constraints Used in Cover:471
GRASP Method!
Number cuts repeat: 0
value: 94.743243
Number Constraints Used in Cover:472
GRASP Method!
Number cuts repeat: 0
value: 94.743243
Number Constraints Used in Cover:476
GRASP Method!
Number cuts repeat: 0
value: 94.743243
Number Constraints Used in Cover:479
GRASP Method!
Number cuts repeat: 0
value: 94.743243
Number Constraints Used in Cover:480
GRASP Method!
Number cuts repeat: 0
value: 94.743243
Number Constraints Used in Cover:482
GRASP Method!
Number cuts repeat: 0
value: 94.743243
Number Constraints Used in Cover:484
GRASP Method!
Number cuts repeat: 0
value: 94.743243
Number Constraints Used in Cover:489
GRASP Method!
Number cuts repeat: 0
value: 94.743243
Number Constraints Used in Cover:495
GRASP Method!
Number cuts repeat: 0
value: 94.743243
Number Constraints Used in Cover:500
GRASP Method!
Number cuts repeat: 0
value: 94.743243
Number Constraints Used in Cover:502
GRASP Method!
Number cuts repeat: 0
value: 94.743243
Number Constraints Used in Cover:505
GRASP Method!
Number cuts repeat: 0
value: 94.743243
Number Constraints Used in Cover:506
GRASP Method!
Number cuts repeat: 0
value: 94.743243
Number Constraints Used in Cover:508
GRASP Method!
Number cuts repeat: 0
value: 94.743243
Number Constraints Used in Cover:513
GRASP Method!
Number cuts repeat: 0
value: 94.743243
Number Constraints Used in Cover:517
GRASP Method!
Number cuts repeat: 0
value: 94.743243
Number Constraints Used in Cover:523
GRASP Method!
Number cuts repeat: 0
value: 94.743243
Number Constraints Used in Cover:530
GRASP Method!
Number cuts repeat: 0
value: 94.743243
Number Constraints Used in Cover:533
GRASP Method!
Number cuts repeat: 0
value: 94.743243
Number Constraints Used in Cover:539
GRASP Method!
Number cuts repeat: 0
value: 94.743243
Number Constraints Used in Cover:544
GRASP Method!
Number cuts repeat: 0
value: 94.743243
Number Constraints Used in Cover:550
GRASP Method!
Number cuts repeat: 0
value: 94.743243
Number Constraints Used in Cover:555
GRASP Method!
Number cuts repeat: 0
value: 94.743243
Number Constraints Used in Cover:556
GRASP Method!
Number cuts repeat: 0
value: 94.743243
Number Cuts Final: 554
